p tw 193 2721
1 145
1 70
1 76
1 88
1 92
1 100
1 2
1 183
1 25
1 91
1 111
1 114
1 116
1 89
1 90
1 93
1 94
1 95
1 96
1 97
1 98
1 103
1 101
1 23
1 99
1 108
1 107
1 102
1 80
1 68
1 65
1 82
1 64
1 63
1 62
1 61
1 71
1 50
1 60
1 59
1 83
1 57
1 56
1 55
1 54
1 53
1 7
1 6
1 5
1 4
1 192
1 191
1 46
1 74
1 45
1 44
1 43
1 42
1 41
1 40
1 39
1 49
1 48
1 85
1 52
1 51
1 11
1 10
1 9
1 67
1 73
1 15
1 20
1 19
1 18
1 17
1 86
1 38
1 37
1 35
1 34
1 33
1 32
1 31
1 30
1 21
1 87
1 29
1 28
1 27
1 26
1 24
1 13
1 188
1 187
1 72
1 186
1 185
1 184
1 181
1 180
1 179
1 178
1 190
1 84
1 177
1 176
1 175
1 174
1 173
1 170
1 169
1 168
1 167
1 166
1 110
1 109
1 66
1 121
1 120
1 119
1 118
1 79
1 163
1 162
1 160
1 159
1 157
1 156
1 155
1 154
1 153
1 152
1 151
1 149
1 148
1 81
1 144
1 143
1 142
1 141
1 140
1 137
1 136
1 135
1 134
1 133
1 132
1 131
1 130
1 129
1 126
1 125
1 124
1 123
1 115
1 113
1 112
1 14
1 3
1 172
1 161
1 75
1 77
1 150
1 139
1 128
1 117
1 106
1 105
1 104
1 69
1 58
1 47
1 78
1 36
1 122
2 183
2 25
2 91
2 111
2 114
2 116
2 89
2 90
2 93
2 94
2 95
2 96
2 97
2 98
2 173
2 174
2 175
2 176
2 177
2 122
106 14
106 3
106 172
106 161
106 150
106 139
106 128
106 117
106 69
106 58
106 47
106 36
117 139
117 128
128 150
128 139
139 161
139 150
150 14
150 3
150 172
150 161
150 69
150 58
150 47
150 36
161 14
161 3
161 172
172 3
183 25
183 91
183 111
183 114
183 116
183 89
183 90
183 93
183 94
183 95
183 96
183 97
183 98
183 103
183 99
183 73
183 20
183 67
183 7
183 110
183 118
183 66
183 121
183 122
3 14
3 69
3 58
3 47
3 36
14 69
14 58
14 47
14 36
25 91
25 111
25 114
25 116
25 89
25 90
25 93
25 94
25 95
25 96
25 97
25 98
25 103
25 99
25 73
25 20
25 67
25 7
25 110
25 118
25 66
25 121
25 122
36 58
36 47
47 69
47 58
58 69
80 102
91 111
91 114
91 116
91 89
91 90
91 93
91 94
91 95
91 96
91 97
91 98
91 23
91 99
91 103
91 73
91 20
91 67
91 7
91 110
91 118
91 66
91 121
91 122
109 110
110 121
110 120
110 119
110 118
110 163
110 162
110 160
110 159
110 157
110 156
110 155
110 154
110 153
110 152
110 151
110 149
110 148
110 144
110 143
110 142
110 141
110 140
110 137
110 136
110 135
110 134
110 133
110 132
110 131
110 130
110 129
110 126
110 125
110 124
110 123
110 115
110 113
110 112
111 114
111 116
111 89
111 90
111 93
111 94
111 95
111 96
111 97
111 98
111 101
111 23
111 99
111 103
111 73
111 20
111 67
111 7
111 118
111 66
111 121
111 122
114 116
114 89
114 90
114 93
114 94
114 95
114 96
114 97
114 98
114 103
114 99
114 73
114 20
114 67
114 7
114 118
114 66
114 121
114 122
116 89
116 90
116 93
116 94
116 95
116 96
116 97
116 98
116 103
116 99
116 73
116 20
116 67
116 7
116 173
116 174
116 175
116 176
116 177
116 170
116 118
116 66
116 121
116 122
118 121
118 120
118 119
118 163
118 162
118 160
118 159
118 157
118 156
118 155
118 154
118 153
118 152
118 151
118 149
118 148
118 123
119 121
119 120
120 121
121 163
121 162
121 160
121 159
121 157
121 156
121 155
121 154
121 153
121 152
121 151
121 149
121 148
121 124
121 123
122 127
122 138
122 146
122 147
122 158
122 164
122 165
122 171
122 182
122 189
122 193
122 8
122 12
122 16
122 22
122 23
122 50
122 66
122 67
122 68
122 71
122 72
122 73
122 74
122 75
122 77
122 78
122 79
122 81
122 82
122 83
122 84
122 85
122 86
122 87
122 99
122 101
122 103
122 104
122 105
122 123
122 124
122 125
122 126
122 129
122 130
122 131
122 132
122 133
122 134
122 135
122 136
122 137
122 140
122 141
122 142
122 143
122 144
122 148
122 149
122 151
122 152
122 153
122 154
122 155
122 156
122 157
122 159
122 160
122 162
122 163
122 166
122 167
122 168
122 169
122 170
122 173
122 174
122 175
122 176
122 177
122 178
122 179
122 180
122 181
122 184
122 185
122 186
122 187
122 188
122 190
122 191
122 192
122 4
122 5
122 6
122 7
122 9
122 10
122 11
122 13
122 15
122 17
122 18
122 19
122 20
122 21
122 24
122 26
122 27
122 28
122 29
122 30
122 31
122 32
122 33
122 34
122 35
122 37
122 38
122 39
122 40
122 41
122 42
122 43
122 44
122 45
122 46
122 48
122 49
122 51
122 52
122 53
122 54
122 55
122 56
122 57
122 59
122 60
122 61
122 62
122 63
122 64
122 65
122 98
122 97
122 96
122 95
122 94
122 93
122 90
122 89
123 130
123 129
123 126
123 125
123 124
124 131
124 130
124 129
124 126
124 125
125 126
126 129
127 138
127 146
127 147
127 158
127 164
127 165
127 171
127 182
127 189
127 193
127 8
127 12
127 16
127 22
127 23
127 50
127 66
127 67
127 68
127 71
127 72
127 73
127 74
127 75
127 77
127 78
127 79
127 81
127 82
127 83
127 84
127 85
127 86
127 87
127 99
127 101
127 103
127 104
127 105
127 129
127 130
127 131
127 132
127 133
127 134
127 135
127 136
127 137
127 140
127 141
127 142
127 143
127 144
127 148
127 149
127 151
127 152
127 153
127 154
127 155
127 156
127 157
127 159
127 160
127 162
127 163
127 166
127 167
127 168
127 169
127 170
127 173
127 174
127 175
127 176
127 177
127 178
127 179
127 180
127 181
127 184
127 185
127 186
127 187
127 188
127 190
127 191
127 192
127 4
127 5
127 6
127 7
127 9
127 10
127 11
127 13
127 15
127 17
127 18
127 19
127 20
127 21
127 24
127 26
127 27
127 28
127 29
127 30
127 31
127 32
127 33
127 34
127 35
127 37
127 38
127 39
127 40
127 41
127 42
127 43
127 44
127 45
127 46
127 48
127 49
127 51
127 52
127 53
127 54
127 55
127 56
127 57
127 59
127 60
127 61
127 62
127 63
127 64
127 65
129 133
129 132
129 131
129 130
130 134
130 133
130 132
130 131
131 135
131 134
131 133
131 132
132 136
132 135
132 134
132 133
133 144
133 143
133 142
133 141
133 140
133 137
133 136
133 135
133 134
134 137
134 136
134 135
135 143
135 142
135 141
135 140
135 137
135 136
136 141
136 140
136 137
137 142
137 141
137 140
138 146
138 147
138 158
138 164
138 165
138 171
138 182
138 189
138 193
138 8
138 12
138 16
138 22
138 23
138 50
138 66
138 67
138 68
138 71
138 72
138 73
138 74
138 75
138 77
138 78
138 79
138 81
138 82
138 83
138 84
138 85
138 86
138 87
138 99
138 101
138 103
138 104
138 105
138 140
138 141
138 142
138 143
138 144
138 148
138 149
138 151
138 152
138 153
138 154
138 155
138 156
138 157
138 159
138 160
138 162
138 163
138 166
138 167
138 168
138 169
138 170
138 173
138 174
138 175
138 176
138 177
138 178
138 179
138 180
138 181
138 184
138 185
138 186
138 187
138 188
138 190
138 191
138 192
138 4
138 5
138 6
138 7
138 9
138 10
138 11
138 13
138 15
138 17
138 18
138 19
138 20
138 21
138 24
138 26
138 27
138 28
138 29
138 30
138 31
138 32
138 33
138 34
138 35
138 37
138 38
138 39
138 40
138 41
138 42
138 43
138 44
138 45
138 46
138 48
138 49
138 51
138 52
138 53
138 54
138 55
138 56
138 57
138 59
138 60
138 61
138 62
138 63
138 64
138 65
138 89
140 144
140 143
140 142
140 141
141 144
141 143
141 142
142 144
142 143
143 144
145 70
145 76
145 88
145 92
145 100
145 89
145 90
145 93
145 94
145 95
145 96
145 97
145 98
145 103
145 101
145 23
145 99
145 68
145 65
145 82
145 64
145 63
145 62
145 61
145 71
145 50
145 60
145 59
145 83
145 57
145 56
145 55
145 54
145 53
145 7
145 6
145 5
145 4
145 192
145 191
145 46
145 74
145 45
145 44
145 43
145 42
145 41
145 40
145 39
145 49
145 48
145 85
145 52
145 51
145 11
145 10
145 9
145 67
145 73
145 15
145 20
145 19
145 18
145 17
145 86
145 38
145 37
145 35
145 34
145 33
145 32
145 31
145 30
145 21
145 87
145 29
145 28
145 27
145 26
145 24
145 13
145 188
145 187
145 72
145 186
145 185
145 184
145 181
145 180
145 179
145 178
145 190
145 84
145 177
145 176
145 175
145 174
145 173
145 170
145 169
145 168
145 167
145 166
145 66
145 79
145 163
145 162
145 160
145 159
145 157
145 156
145 155
145 154
145 153
145 152
145 151
145 149
145 148
145 81
145 75
145 77
145 105
145 104
145 78
146 147
146 158
146 164
146 165
146 171
146 182
146 189
146 193
146 8
146 12
146 16
146 22
146 23
146 50
146 66
146 67
146 68
146 71
146 72
146 73
146 74
146 75
146 77
146 78
146 79
146 81
146 82
146 83
146 84
146 85
146 86
146 87
146 99
146 101
146 103
146 104
146 105
146 148
146 149
146 151
146 152
146 153
146 154
146 155
146 156
146 157
146 159
146 160
146 162
146 163
146 166
146 167
146 168
146 169
146 170
146 173
146 174
146 175
146 176
146 177
146 178
146 179
146 180
146 181
146 184
146 185
146 186
146 187
146 188
146 190
146 191
146 192
146 4
146 5
146 6
146 7
146 9
146 10
146 11
146 13
146 15
146 17
146 18
146 19
146 20
146 21
146 24
146 26
146 27
146 28
146 29
146 30
146 31
146 32
146 33
146 34
146 35
146 37
146 38
146 39
146 40
146 41
146 42
146 43
146 44
146 45
146 46
146 48
146 49
146 51
146 52
146 53
146 54
146 55
146 56
146 57
146 59
146 60
146 61
146 62
146 63
146 64
146 65
146 90
146 89
147 158
147 164
147 165
147 171
147 182
147 189
147 193
147 8
147 12
147 16
147 22
147 23
147 50
147 66
147 67
147 68
147 71
147 72
147 73
147 74
147 75
147 77
147 78
147 79
147 81
147 82
147 83
147 84
147 85
147 86
147 87
147 99
147 101
147 103
147 104
147 105
147 148
147 149
147 151
147 152
147 153
147 154
147 155
147 156
147 157
147 159
147 160
147 162
147 163
147 166
147 167
147 168
147 169
147 170
147 173
147 174
147 175
147 176
147 177
147 178
147 179
147 180
147 181
147 184
147 185
147 186
147 187
147 188
147 190
147 191
147 192
147 4
147 5
147 6
147 7
147 9
147 10
147 11
147 13
147 15
147 17
147 18
147 19
147 20
147 21
147 24
147 26
147 27
147 28
147 29
147 30
147 31
147 32
147 33
147 34
147 35
147 37
147 38
147 39
147 40
147 41
147 42
147 43
147 44
147 45
147 46
147 48
147 49
147 51
147 52
147 53
147 54
147 55
147 56
147 57
147 59
147 60
147 61
147 62
147 63
147 64
147 65
147 93
147 90
147 89
148 151
148 149
149 152
149 151
151 153
151 152
152 156
152 155
152 154
152 153
153 157
153 156
153 155
153 154
154 155
155 163
155 162
155 160
155 159
155 157
155 156
156 162
156 160
156 159
156 157
157 159
158 164
158 165
158 171
158 182
158 189
158 193
158 8
158 12
158 16
158 22
158 23
158 50
158 66
158 67
158 68
158 71
158 72
158 73
158 74
158 75
158 77
158 78
158 79
158 81
158 82
158 83
158 84
158 85
158 86
158 87
158 99
158 101
158 103
158 104
158 105
158 159
158 160
158 162
158 163
158 166
158 167
158 168
158 169
158 170
158 173
158 174
158 175
158 176
158 177
158 178
158 179
158 180
158 181
158 184
158 185
158 186
158 187
158 188
158 190
158 191
158 192
158 4
158 5
158 6
158 7
158 9
158 10
158 11
158 13
158 15
158 17
158 18
158 19
158 20
158 21
158 24
158 26
158 27
158 28
158 29
158 30
158 31
158 32
158 33
158 34
158 35
158 37
158 38
158 39
158 40
158 41
158 42
158 43
158 44
158 45
158 46
158 48
158 49
158 51
158 52
158 53
158 54
158 55
158 56
158 57
158 59
158 60
158 61
158 62
158 63
158 64
158 65
158 94
158 93
158 90
158 89
159 160
160 163
160 162
162 163
164 165
164 171
164 182
164 189
164 193
164 8
164 12
164 16
164 22
164 23
164 50
164 66
164 67
164 68
164 71
164 72
164 73
164 74
164 75
164 77
164 78
164 79
164 81
164 82
164 83
164 84
164 85
164 86
164 87
164 99
164 101
164 103
164 104
164 105
164 166
164 167
164 168
164 169
164 170
164 173
164 174
164 175
164 176
164 177
164 178
164 179
164 180
164 181
164 184
164 185
164 186
164 187
164 188
164 190
164 191
164 192
164 4
164 5
164 6
164 7
164 9
164 10
164 11
164 13
164 15
164 17
164 18
164 19
164 20
164 21
164 24
164 26
164 27
164 28
164 29
164 30
164 31
164 32
164 33
164 34
164 35
164 37
164 38
164 39
164 40
164 41
164 42
164 43
164 44
164 45
164 46
164 48
164 49
164 51
164 52
164 53
164 54
164 55
164 56
164 57
164 59
164 60
164 61
164 62
164 63
164 64
164 65
164 95
164 94
164 93
164 90
164 89
165 171
165 182
165 189
165 193
165 8
165 12
165 16
165 22
165 23
165 50
165 66
165 67
165 68
165 71
165 72
165 73
165 74
165 75
165 77
165 78
165 79
165 81
165 82
165 83
165 84
165 85
165 86
165 87
165 99
165 101
165 103
165 104
165 105
165 166
165 167
165 168
165 169
165 170
165 173
165 174
165 175
165 176
165 177
165 178
165 179
165 180
165 181
165 184
165 185
165 186
165 187
165 188
165 190
165 191
165 192
165 4
165 5
165 6
165 7
165 9
165 10
165 11
165 13
165 15
165 17
165 18
165 19
165 20
165 21
165 24
165 26
165 27
165 28
165 29
165 30
165 31
165 32
165 33
165 34
165 35
165 37
165 38
165 39
165 40
165 41
165 42
165 43
165 44
165 45
165 46
165 48
165 49
165 51
165 52
165 53
165 54
165 55
165 56
165 57
165 59
165 60
165 61
165 62
165 63
165 64
165 65
165 96
165 95
165 94
165 93
165 90
165 89
169 177
169 176
169 175
169 174
169 173
169 170
170 177
170 176
170 175
170 174
170 173
171 182
171 189
171 193
171 8
171 12
171 16
171 22
171 23
171 50
171 66
171 67
171 68
171 71
171 72
171 73
171 74
171 75
171 77
171 78
171 79
171 81
171 82
171 83
171 84
171 85
171 86
171 87
171 99
171 101
171 103
171 104
171 105
171 173
171 174
171 175
171 176
171 177
171 178
171 179
171 180
171 181
171 184
171 185
171 186
171 187
171 188
171 190
171 191
171 192
171 4
171 5
171 6
171 7
171 9
171 10
171 11
171 13
171 15
171 17
171 18
171 19
171 20
171 21
171 24
171 26
171 27
171 28
171 29
171 30
171 31
171 32
171 33
171 34
171 35
171 37
171 38
171 39
171 40
171 41
171 42
171 43
171 44
171 45
171 46
171 48
171 49
171 51
171 52
171 53
171 54
171 55
171 56
171 57
171 59
171 60
171 61
171 62
171 63
171 64
171 65
171 97
171 96
171 95
171 94
171 93
171 90
171 89
173 177
173 176
173 175
173 174
174 177
174 176
174 175
175 177
175 176
176 177
178 180
178 179
179 181
179 180
180 188
180 187
180 186
180 185
180 184
180 181
180 190
181 184
182 189
182 193
182 8
182 12
182 16
182 22
182 23
182 50
182 66
182 67
182 68
182 71
182 72
182 73
182 74
182 75
182 77
182 78
182 79
182 81
182 82
182 83
182 84
182 85
182 86
182 87
182 99
182 101
182 103
182 104
182 105
182 184
182 185
182 186
182 187
182 188
182 190
182 191
182 192
182 4
182 5
182 6
182 7
182 9
182 10
182 11
182 13
182 15
182 17
182 18
182 19
182 20
182 21
182 24
182 26
182 27
182 28
182 29
182 30
182 31
182 32
182 33
182 34
182 35
182 37
182 38
182 39
182 40
182 41
182 42
182 43
182 44
182 45
182 46
182 48
182 49
182 51
182 52
182 53
182 54
182 55
182 56
182 57
182 59
182 60
182 61
182 62
182 63
182 64
182 65
182 98
182 97
182 96
182 95
182 94
182 93
182 90
182 89
184 186
184 185
185 188
185 187
185 186
185 190
186 188
186 187
186 190
188 190
189 193
189 8
189 12
189 16
189 22
189 23
189 50
189 66
189 67
189 68
189 71
189 72
189 73
189 74
189 75
189 77
189 78
189 79
189 81
189 82
189 83
189 84
189 85
189 86
189 87
189 99
189 101
189 103
189 104
189 105
189 190
189 191
189 192
189 4
189 5
189 6
189 7
189 9
189 10
189 11
189 13
189 15
189 17
189 18
189 19
189 20
189 21
189 24
189 26
189 27
189 28
189 29
189 30
189 31
189 32
189 33
189 34
189 35
189 37
189 38
189 39
189 40
189 41
189 42
189 43
189 44
189 45
189 46
189 48
189 49
189 51
189 52
189 53
189 54
189 55
189 56
189 57
189 59
189 60
189 61
189 62
189 63
189 64
189 65
189 98
189 97
189 96
189 95
189 94
189 93
189 90
189 89
191 192
193 8
193 12
193 16
193 22
193 23
193 50
193 66
193 67
193 68
193 71
193 72
193 73
193 74
193 75
193 77
193 78
193 79
193 81
193 82
193 83
193 84
193 85
193 86
193 87
193 99
193 101
193 103
193 104
193 105
193 4
193 5
193 6
193 7
193 9
193 10
193 11
193 13
193 15
193 17
193 18
193 19
193 20
193 21
193 24
193 26
193 27
193 28
193 29
193 30
193 31
193 32
193 33
193 34
193 35
193 37
193 38
193 39
193 40
193 41
193 42
193 43
193 44
193 45
193 46
193 48
193 49
193 51
193 52
193 53
193 54
193 55
193 56
193 57
193 59
193 60
193 61
193 62
193 63
193 64
193 65
193 98
193 97
193 96
193 95
193 94
193 93
193 90
193 89
4 7
4 6
4 5
5 7
5 6
6 7
7 46
7 45
7 44
7 43
7 42
7 41
7 40
7 39
7 49
7 48
7 52
7 51
7 11
7 10
7 9
7 15
7 20
7 19
7 18
7 17
7 38
7 37
7 35
7 34
7 33
7 32
7 31
7 30
7 21
7 29
7 28
7 27
7 26
7 24
7 13
8 12
8 16
8 22
8 23
8 50
8 66
8 67
8 68
8 71
8 72
8 73
8 74
8 75
8 77
8 78
8 79
8 81
8 82
8 83
8 84
8 85
8 86
8 87
8 99
8 101
8 103
8 104
8 105
8 9
8 10
8 11
8 13
8 15
8 17
8 18
8 19
8 20
8 21
8 24
8 26
8 27
8 28
8 29
8 30
8 31
8 32
8 33
8 34
8 35
8 37
8 38
8 39
8 40
8 41
8 42
8 43
8 44
8 45
8 46
8 48
8 49
8 51
8 52
8 53
8 54
8 55
8 56
8 57
8 59
8 60
8 61
8 62
8 63
8 64
8 65
8 98
8 97
8 96
8 95
8 94
8 93
8 90
8 89
10 11
12 16
12 22
12 23
12 50
12 66
12 67
12 68
12 71
12 72
12 73
12 74
12 75
12 77
12 78
12 79
12 81
12 82
12 83
12 84
12 85
12 86
12 87
12 99
12 101
12 103
12 104
12 105
12 13
12 15
12 17
12 18
12 19
12 20
12 21
12 24
12 26
12 27
12 28
12 29
12 30
12 31
12 32
12 33
12 34
12 35
12 37
12 38
12 39
12 40
12 41
12 42
12 43
12 44
12 45
12 46
12 48
12 49
12 51
12 52
12 53
12 54
12 55
12 56
12 57
12 59
12 60
12 61
12 62
12 63
12 64
12 65
12 98
12 97
12 96
12 95
12 94
12 93
12 90
12 89
16 22
16 23
16 50
16 66
16 67
16 68
16 71
16 72
16 73
16 74
16 75
16 77
16 78
16 79
16 81
16 82
16 83
16 84
16 85
16 86
16 87
16 99
16 101
16 103
16 104
16 105
16 17
16 18
16 19
16 20
16 21
16 24
16 26
16 27
16 28
16 29
16 30
16 31
16 32
16 33
16 34
16 35
16 37
16 38
16 39
16 40
16 41
16 42
16 43
16 44
16 45
16 46
16 48
16 49
16 51
16 52
16 53
16 54
16 55
16 56
16 57
16 59
16 60
16 61
16 62
16 63
16 64
16 65
16 98
16 97
16 96
16 95
16 94
16 93
16 90
16 89
17 19
17 18
18 20
18 19
19 20
19 34
19 33
19 32
19 31
19 30
20 38
20 37
20 35
20 34
20 33
20 32
20 31
20 30
20 21
20 28
20 27
20 26
20 24
22 23
22 50
22 66
22 67
22 68
22 71
22 72
22 73
22 74
22 75
22 77
22 78
22 79
22 81
22 82
22 83
22 84
22 85
22 86
22 87
22 99
22 101
22 103
22 104
22 105
22 24
22 26
22 27
22 28
22 29
22 30
22 31
22 32
22 33
22 34
22 35
22 37
22 38
22 39
22 40
22 41
22 42
22 43
22 44
22 45
22 46
22 48
22 49
22 51
22 52
22 53
22 54
22 55
22 56
22 57
22 59
22 60
22 61
22 62
22 63
22 64
22 65
22 98
22 97
22 96
22 95
22 94
22 93
22 90
22 89
23 103
23 101
23 99
23 68
23 65
23 82
23 64
23 63
23 62
23 61
23 66
23 79
23 81
23 75
23 77
23 105
23 104
23 78
24 26
26 29
26 28
26 27
28 29
30 31
31 38
31 37
31 35
31 34
31 33
31 32
32 33
33 38
33 37
33 35
33 34
34 37
34 35
35 38
35 37
37 38
39 42
39 41
39 40
40 43
40 42
40 41
41 46
41 45
41 44
41 43
41 42
41 49
41 48
41 52
41 51
42 43
43 44
44 45
45 46
45 49
45 48
45 52
45 51
46 49
46 48
46 52
46 51
48 49
49 51
50 71
50 99
50 103
50 60
50 59
50 83
50 57
50 56
50 55
50 54
50 53
50 74
50 85
50 52
50 51
50 67
50 73
50 86
50 87
50 72
50 84
51 52
53 54
54 60
54 59
54 57
54 56
54 55
56 60
56 59
56 57
57 59
59 60
61 62
62 65
62 64
62 63
64 65
66 103
66 99
66 68
66 79
66 81
67 103
67 99
67 73
67 71
67 86
67 87
68 99
68 103
68 82
68 79
68 81
70 76
70 88
70 92
70 100
70 89
70 90
70 93
70 94
70 95
70 96
70 97
70 98
71 103
71 99
71 83
71 74
71 85
71 73
71 87
71 72
71 84
72 99
72 84
73 103
73 99
73 86
73 87
74 103
74 99
74 85
75 103
75 99
75 77
75 78
76 88
76 92
76 100
76 89
76 90
76 93
76 94
76 95
76 96
76 97
76 98
77 103
77 99
77 78
78 103
78 99
79 103
79 99
81 103
81 99
82 103
82 99
83 103
83 99
84 99
85 103
85 99
86 103
86 99
87 103
87 99
88 92
88 100
88 89
88 90
88 93
88 94
88 95
88 96
88 97
88 98
89 98
89 97
89 96
89 95
89 94
89 93
89 90
90 98
90 97
90 96
90 95
90 94
90 93
92 100
92 93
92 94
92 95
92 96
92 97
92 98
93 98
93 97
93 96
93 95
93 94
94 98
94 97
94 96
94 95
95 98
95 97
95 96
96 98
96 97
97 98
99 103
99 101
99 105
99 104
101 103
103 105
103 104
104 105
